<number of tasks>
50

<cycle time>
1000

<order strength>
0.202


<task times>
1 140
2 71
3 262
4 124
5 288
6 108
7 152
8 73
9 348
10 79
11 88
12 67
13 164
14 130
15 158
16 149
17 76
18 213
19 189
20 147
21 169
22 78
23 128
24 193
25 117
26 24
27 93
28 62
29 174
30 192
31 136
32 87
33 118
34 76
35 243
36 24
37 77
38 243
39 250
40 279
41 109
42 155
43 73
44 101
45 193
46 130
47 123
48 250
49 69
50 208

<precedence relations>
2,33
3,12
3,40
6,11
6,13
7,9
7,10
9,18
10,16
10,17
11,14
12,34
13,15
14,19
14,20
15,23
16,22
17,50
18,21
19,24
22,26
22,28
22,30
23,25
23,27
23,29
23,31
23,32
23,34
23,35
26,33
28,34
28,35
29,36
30,32
30,36
30,44
31,37
33,44
34,38
36,39
36,41
36,42
37,40
37,43
38,47
41,45
41,48
42,49
42,50
43,46

<end>
